
Gurobi 6.5.2 (linux64) logging started Tue Mar 21 10:58:21 2017


Gurobi 6.5.2 (linux64) logging started Tue Mar 21 10:58:21 2017

Optimize a model with 201 rows, 1585 columns and 4249 nonzeros
Coefficient statistics:
  Matrix range    [1e+00, 2e+00]
  Objective range [1e+00, 1e+02]
  Bounds range    [1e+00, 1e+00]
  RHS range       [1e+00, 1e+00]
Presolve removed 47 rows and 1 columns
Presolve time: 0.01s
Presolved: 154 rows, 1584 columns, 3722 nonzeros
Variable types: 0 continuous, 1584 integer (1584 binary)

Root relaxation: objective 1.004250e+03, 111 iterations, 0.00 seconds

    Nodes    |    Current Node    |     Objective Bounds      |     Work
 Expl Unexpl |  Obj  Depth IntInf | Incumbent    BestBd   Gap | It/Node Time

     0     0 1004.25000    0   44          - 1004.25000      -     -    0s
     0     0 1080.75000    0   18          - 1080.75000      -     -    0s
     0     0 1088.30000    0   30          - 1088.30000      -     -    0s
     0     0 1088.35714    0   25          - 1088.35714      -     -    0s
     0     0 1097.87500    0   46          - 1097.87500      -     -    0s
     0     0 1098.50000    0   48          - 1098.50000      -     -    0s
H    0     0                    1161.0000000 1098.50000  5.38%     -    0s
     0     0 1098.50000    0   42 1161.00000 1098.50000  5.38%     -    0s
     0     0 1098.50000    0   31 1161.00000 1098.50000  5.38%     -    0s
     0     0 1098.75000    0   45 1161.00000 1098.75000  5.36%     -    0s
     0     0 1107.38182    0   34 1161.00000 1107.38182  4.62%     -    0s
     0     0 1108.33566    0   38 1161.00000 1108.33566  4.54%     -    0s
     0     0 1108.90441    0   71 1161.00000 1108.90441  4.49%     -    0s
     0     0 1108.90441    0   71 1161.00000 1108.90441  4.49%     -    0s
     0     0 1108.90441    0   42 1161.00000 1108.90441  4.49%     -    0s
     0     0 1108.90441    0   21 1161.00000 1108.90441  4.49%     -    0s
     0     0 1108.90441    0   48 1161.00000 1108.90441  4.49%     -    0s
     0     0 1108.90441    0   57 1161.00000 1108.90441  4.49%     -    0s
     0     0 1109.27778    0   64 1161.00000 1109.27778  4.45%     -    0s
     0     0 1109.72159    0   49 1161.00000 1109.72159  4.42%     -    0s
     0     2 1109.72159    0   49 1161.00000 1109.72159  4.42%     -    0s
H 1065   741                    1160.0000000 1119.09287  3.53%   5.4    2s
H 1106   732                    1156.0000000 1131.64972  2.11%   6.3    3s
  1141   757 1146.00000   79  101 1156.00000 1132.33555  2.05%   6.5    5s
* 4692  1380              74    1155.0000000 1139.98333  1.30%   7.0    7s
* 5283  1396              65    1154.0000000 1140.62097  1.16%   7.0    7s
* 6634  1256              72    1153.0000000 1143.00000  0.87%   7.0    8s
* 8612   791              76    1151.0000000 1146.00000  0.43%   6.9    9s
* 8762   510              70    1150.0000000 1146.59091  0.30%   6.9    9s
  9196   347 1147.33333   63   14 1150.00000 1147.30739  0.23%   6.8   10s

Cutting planes:
  Gomory: 47
  Cover: 96
  Flow cover: 11
  Zero half: 21
  Lazy constraints: 471

Explored 9846 nodes (65613 simplex iterations) in 10.57 seconds
Thread count was 4 (of 4 available processors)

Optimal solution found (tolerance 1.00e-04)
Best objective 1.150000000000e+03, best bound 1.150000000000e+03, gap 0.0%
